
n_res = 6;
rcap = [56, 53, 52, 46, 795, 686];
rtype = [1, 1, 1, 1, 2, 2];
n_tasks = 50;
modes =  [{1, 2, 3, 4, 5, 6}, {7, 8, 9, 10, 11, 12}, {13, 14, 15, 16, 17, 18}, {19, 20, 21, 22, 23, 24}, {25, 26, 27, 28, 29, 30}, {31, 32, 33, 34, 35, 36}, {37, 38, 39, 40, 41, 42}, {43, 44, 45, 46, 47, 48}, {49, 50, 51, 52, 53, 54}, {55, 56, 57, 58, 59, 60}, {61, 62, 63, 64, 65, 66}, {67, 68, 69, 70, 71, 72}, {73, 74, 75, 76, 77, 78}, {79, 80, 81, 82, 83, 84}, {85, 86, 87, 88, 89, 90}, {91, 92, 93, 94, 95, 96}, {97, 98, 99, 100, 101, 102}, {103, 104, 105, 106, 107, 108}, {109, 110, 111, 112, 113, 114}, {115, 116, 117, 118, 119, 120}, {121, 122, 123, 124, 125, 126}, {127, 128, 129, 130, 131, 132}, {133, 134, 135, 136, 137, 138}, {139, 140, 141, 142, 143, 144}, {145, 146, 147, 148, 149, 150}, {151, 152, 153, 154, 155, 156}, {157, 158, 159, 160, 161, 162}, {163, 164, 165, 166, 167, 168}, {169, 170, 171, 172, 173, 174}, {175, 176, 177, 178, 179, 180}, {181, 182, 183, 184, 185, 186}, {187, 188, 189, 190, 191, 192}, {193, 194, 195, 196, 197, 198}, {199, 200, 201, 202, 203, 204}, {205, 206, 207, 208, 209, 210}, {211, 212, 213, 214, 215, 216}, {217, 218, 219, 220, 221, 222}, {223, 224, 225, 226, 227, 228}, {229, 230, 231, 232, 233, 234}, {235, 236, 237, 238, 239, 240}, {241, 242, 243, 244, 245, 246}, {247, 248, 249, 250, 251, 252}, {253, 254, 255, 256, 257, 258}, {259, 260, 261, 262, 263, 264}, {265, 266, 267, 268, 269, 270}, {271, 272, 273, 274, 275, 276}, {277, 278, 279, 280, 281, 282}, {283, 284, 285, 286, 287, 288}, {289, 290, 291, 292, 293, 294}, {295, 296, 297, 298, 299, 300}];
succ =  [{50, 48, 44, 43, 42, 41, 30, 23, 19, 13}, {47, 44, 42, 41, 30, 28, 23, 19, 13}, {48, 47, 46, 45, 43, 41, 40, 33, 31, 30, 22, 17}, {48, 47, 46, 43, 41, 40, 30, 24, 22, 18}, {49, 48, 45, 43, 42, 41, 40, 31, 27, 26, 23, 17}, {49, 48, 46, 45, 44, 43, 41, 40, 39, 26, 19, 18}, {45, 41, 40, 31, 24, 23, 22, 17}, {50, 49, 46, 44, 43, 41, 39, 30, 23, 19}, {48, 47, 45, 44, 43, 42, 41, 40, 38, 37, 36, 23}, {42, 41, 40, 39, 26, 23, 19}, {46, 43, 42, 41, 40, 39, 37, 36, 34, 33, 30}, {45, 44, 43, 42, 41, 39, 34, 30, 26}, {46, 45, 40, 37, 35, 31, 26}, {46, 42, 40, 37, 23}, {42, 41, 40, 39, 37, 34, 33}, {47, 45, 39, 34, 27}, {44, 38, 36, 35, 29}, {38, 23}, {38, 37, 36, 35, 34}, {47, 43, 38, 34, 33}, {41, 40, 36, 29}, {42, 39, 27}, {35, 33, 29}, {44, 35, 33}, {38, 36, 33}, {38, 33}, {37, 36}, {43, 40}, {34}, {35}, {39}, {33}, {}, {}, {}, {}, {}, {}, {}, {}, {}, {}, {}, {}, {}, {}, {}, {}, {}, {}];
n_opt = 300;
dur = [9, 10, 15, 17, 21, 22, 7, 11, 12, 13, 14, 15, 5, 11, 12, 19, 22, 26, 4, 20, 22, 23, 24, 25, 2, 9, 13, 19, 20, 21, 9, 12, 17, 19, 20, 21, 2, 9, 14, 16, 17, 29, 2, 3, 7, 8, 9, 29, 1, 5, 6, 10, 12, 14, 2, 6, 8, 26, 27, 29, 2, 6, 13, 20, 22, 27, 1, 5, 11, 17, 23, 24, 1, 5, 18, 19, 21, 22, 7, 10, 22, 27, 28, 29, 2, 3, 12, 19, 20, 28, 11, 12, 13, 15, 19, 30, 6, 10, 13, 14, 25, 26, 12, 16, 18, 22, 23, 27, 6, 11, 12, 13, 29, 30, 8, 9, 10, 11, 20, 21, 3, 6, 10, 15, 22, 27, 2, 4, 6, 11, 28, 29, 1, 2, 4, 5, 18, 28, 18, 19, 22, 23, 27, 28, 4, 5, 15, 21, 23, 27, 12, 16, 18, 21, 24, 30, 4, 5, 18, 20, 23, 29, 5, 10, 13, 19, 20, 23, 5, 11, 12, 18, 19, 22, 11, 14, 15, 17, 18, 29, 15, 17, 18, 25, 26, 28, 6, 11, 12, 13, 28, 30, 6, 13, 16, 22, 26, 30, 4, 5, 10, 12, 17, 18, 5, 7, 10, 13, 14, 18, 5, 18, 21, 22, 26, 29, 5, 7, 11, 14, 19, 20, 3, 5, 8, 17, 19, 29, 1, 2, 6, 10, 16, 26, 2, 4, 7, 8, 15, 29, 1, 10, 17, 20, 25, 30, 7, 8, 10, 16, 17, 26, 3, 4, 9, 18, 24, 29, 3, 6, 13, 18, 23, 30, 3, 17, 25, 26, 27, 28, 8, 10, 20, 21, 24, 29, 1, 8, 10, 11, 12, 19, 3, 13, 14, 17, 25, 28, 1, 8, 11, 16, 22, 24, 2, 4, 6, 12, 17, 28];
rreq = [|4, 4, 4, 4, 4, 4, 5, 4, 4, 4, 4, 4, 4, 4, 4, 4, 4, 4, 3, 3, 3, 3, 3, 3, 2, 2, 2, 1, 1, 1, 4, 4, 4, 4, 4, 4, 5, 4, 3, 3, 2, 1, 4, 4, 4, 4, 3, 3, 5, 4, 3, 3, 3, 2, 5, 4, 3, 2, 1, 1, 4, 4, 4, 4, 4, 4, 3, 3, 2, 2, 2, 1, 4, 4, 3, 3, 3, 2, 5, 3, 3, 3, 1, 1, 5, 4, 4, 4, 4, 4, 1, 1, 1, 1, 1, 1, 1, 1, 1, 1, 1, 1, 3, 3, 3, 2, 1, 1, 3, 3, 3, 3, 3, 3, 3, 3, 3, 2, 2, 1, 5, 4, 3, 3, 3, 2, 2, 2, 2, 2, 2, 2, 3, 3, 3, 3, 2, 2, 2, 1, 1, 1, 1, 1, 4, 4, 4, 4, 4, 4, 4, 3, 2, 2, 1, 1, 2, 2, 2, 2, 2, 2, 5, 5, 5, 5, 5, 5, 4, 3, 3, 3, 2, 2, 5, 5, 5, 5, 5, 5, 4, 3, 3, 3, 3, 3, 3, 2, 2, 2, 1, 1, 4, 3, 3, 3, 3, 3, 1, 1, 1, 1, 1, 1, 4, 4, 3, 3, 3, 2, 5, 4, 3, 3, 1, 1, 4, 3, 3, 2, 2, 2, 5, 4, 4, 3, 3, 3, 5, 4, 4, 3, 3, 3, 5, 5, 5, 5, 5, 5, 4, 3, 3, 2, 2, 2, 5, 4, 4, 4, 3, 3, 2, 2, 2, 2, 2, 2, 4, 3, 3, 2, 2, 2, 5, 4, 4, 3, 3, 3, 2, 2, 2, 1, 1, 1, 4, 4, 4, 4, 4, 4, 3, 2, 2, 2, 2, 2, 3, 3, 2, 2, 1, 1, 4, 3, 2, 2, 2, 1
 |4, 4, 4, 4, 3, 3, 3, 3, 3, 3, 3, 3, 4, 4, 4, 4, 4, 4, 4, 4, 4, 4, 4, 4, 3, 3, 3, 3, 2, 2, 4, 3, 2, 2, 2, 1, 2, 1, 1, 1, 1, 1, 3, 2, 2, 1, 1, 1, 3, 2, 2, 2, 2, 2, 1, 1, 1, 1, 1, 1, 5, 4, 3, 3, 2, 2, 5, 4, 4, 4, 4, 4, 2, 2, 2, 2, 2, 2, 4, 3, 3, 3, 2, 2, 5, 4, 4, 3, 3, 3, 2, 2, 2, 2, 2, 2, 5, 4, 4, 3, 2, 2, 3, 2, 2, 2, 1, 1, 3, 2, 2, 1, 1, 1, 5, 5, 5, 5, 5, 5, 4, 3, 3, 2, 2, 1, 5, 4, 4, 4, 4, 4, 3, 3, 3, 3, 3, 3, 5, 4, 3, 2, 2, 1, 3, 2, 2, 2, 2, 2, 4, 4, 4, 3, 3, 2, 4, 3, 3, 3, 2, 2, 3, 3, 3, 3, 3, 3, 3, 2, 2, 2, 1, 1, 4, 3, 2, 2, 2, 1, 4, 3, 3, 3, 3, 3, 5, 4, 3, 3, 1, 1, 5, 4, 4, 4, 3, 3, 4, 4, 4, 3, 3, 2, 3, 3, 2, 2, 1, 1, 5, 4, 3, 3, 3, 2, 4, 4, 4, 4, 4, 4, 4, 4, 4, 4, 3, 3, 4, 4, 4, 3, 3, 3, 5, 5, 5, 5, 5, 5, 4, 3, 3, 2, 2, 2, 3, 3, 3, 3, 3, 3, 5, 4, 4, 4, 4, 4, 4, 3, 3, 2, 2, 2, 2, 1, 1, 1, 1, 1, 4, 3, 3, 2, 1, 1, 2, 2, 2, 2, 2, 2, 4, 3, 3, 2, 2, 2, 5, 4, 4, 3, 3, 2, 1, 1, 1, 1, 1, 1
 |3, 3, 3, 3, 3, 3, 3, 3, 3, 2, 2, 1, 5, 4, 3, 3, 3, 2, 4, 4, 4, 3, 3, 3, 3, 3, 3, 3, 3, 3, 5, 4, 3, 2, 2, 1, 5, 4, 3, 3, 1, 1, 4, 3, 3, 3, 2, 2, 2, 2, 2, 2, 2, 2, 2, 1, 1, 1, 1, 1, 3, 3, 3, 3, 3, 3, 4, 3, 3, 2, 2, 2, 4, 4, 4, 4, 4, 4, 4, 4, 4, 4, 4, 4, 2, 2, 2, 2, 2, 2, 5, 5, 5, 5, 5, 5, 3, 2, 2, 1, 1, 1, 2, 2, 2, 2, 2, 2, 2, 2, 2, 1, 1, 1, 1, 1, 1, 1, 1, 1, 4, 4, 3, 3, 2, 2, 5, 5, 5, 5, 5, 5, 4, 4, 4, 4, 4, 4, 3, 3, 3, 3, 3, 3, 5, 4, 4, 3, 3, 3, 3, 2, 2, 2, 1, 1, 3, 3, 3, 3, 3, 3, 2, 2, 2, 1, 1, 1, 3, 3, 3, 3, 3, 3, 3, 3, 2, 2, 1, 1, 3, 3, 3, 3, 3, 3, 4, 3, 3, 3, 2, 2, 5, 4, 3, 2, 2, 1, 2, 2, 2, 1, 1, 1, 5, 4, 4, 3, 3, 3, 2, 1, 1, 1, 1, 1, 1, 1, 1, 1, 1, 1, 5, 4, 4, 4, 3, 3, 4, 4, 3, 2, 1, 1, 4, 4, 3, 2, 2, 1, 4, 4, 4, 4, 4, 4, 5, 5, 5, 5, 5, 5, 4, 3, 3, 3, 3, 3, 4, 3, 3, 3, 3, 3, 3, 2, 2, 1, 1, 1, 5, 4, 4, 3, 3, 3, 3, 2, 2, 2, 1, 1, 4, 3, 2, 2, 2, 1, 2, 2, 2, 2, 2, 2, 3, 3, 3, 3, 3, 3
 |1, 1, 1, 1, 1, 1, 3, 3, 3, 3, 2, 2, 3, 2, 2, 2, 1, 1, 4, 3, 3, 3, 3, 3, 4, 4, 4, 4, 4, 4, 2, 2, 2, 2, 2, 2, 3, 3, 3, 2, 2, 1, 4, 4, 4, 4, 4, 4, 3, 2, 2, 2, 1, 1, 4, 4, 3, 3, 3, 2, 2, 2, 2, 2, 2, 2, 4, 3, 3, 3, 3, 3, 3, 3, 3, 3, 3, 3, 5, 4, 4, 4, 3, 3, 1, 1, 1, 1, 1, 1, 3, 2, 2, 2, 2, 2, 5, 3, 3, 3, 2, 1, 5, 4, 4, 4, 3, 3, 2, 2, 2, 2, 2, 2, 3, 2, 2, 2, 2, 2, 2, 2, 2, 2, 1, 1, 4, 4, 4, 4, 4, 4, 4, 3, 3, 2, 2, 2, 2, 2, 2, 2, 2, 2, 4, 4, 4, 3, 3, 3, 4, 4, 4, 4, 3, 3, 4, 3, 3, 2, 2, 1, 2, 2, 2, 2, 2, 2, 1, 1, 1, 1, 1, 1, 4, 3, 2, 2, 2, 1, 4, 4, 4, 4, 4, 4, 5, 3, 3, 3, 2, 1, 4, 3, 2, 2, 1, 1, 2, 2, 2, 2, 2, 2, 4, 4, 4, 4, 4, 4, 5, 4, 3, 2, 2, 1, 4, 4, 4, 4, 4, 4, 2, 2, 2, 1, 1, 1, 3, 3, 3, 3, 3, 3, 3, 3, 3, 2, 2, 2, 2, 2, 2, 2, 1, 1, 4, 4, 3, 3, 2, 2, 5, 5, 5, 5, 5, 5, 4, 4, 4, 4, 3, 3, 3, 3, 3, 2, 1, 1, 2, 2, 2, 2, 2, 2, 3, 2, 2, 1, 1, 1, 3, 2, 2, 2, 2, 2, 4, 4, 4, 4, 4, 4, 4, 4, 4, 4, 4, 4
 |20, 19, 18, 17, 17, 16, 18, 17, 17, 16, 14, 14, 28, 28, 28, 28, 27, 27, 17, 17, 15, 14, 14, 13, 24, 23, 23, 23, 23, 23, 26, 24, 24, 20, 16, 15, 22, 18, 17, 14, 13, 10, 28, 26, 23, 20, 16, 14, 24, 24, 22, 20, 19, 16, 14, 13, 12, 12, 11, 11, 27, 25, 23, 20, 19, 17, 22, 22, 22, 21, 20, 20, 30, 29, 28, 26, 26, 25, 11, 11, 9, 8, 8, 7, 20, 16, 12, 11, 8, 4, 23, 19, 17, 16, 13, 13, 15, 14, 13, 12, 9, 8, 20, 18, 13, 10, 7, 5, 10, 9, 9, 9, 9, 9, 23, 21, 17, 16, 15, 12, 26, 25, 22, 15, 12, 10, 7, 6, 5, 5, 3, 2, 28, 24, 23, 19, 17, 16, 13, 12, 11, 9, 9, 7, 27, 24, 19, 17, 14, 10, 9, 9, 9, 8, 8, 8, 23, 20, 16, 15, 8, 4, 16, 15, 14, 13, 13, 12, 6, 6, 6, 6, 5, 5, 23, 22, 22, 22, 21, 21, 18, 15, 13, 12, 9, 8, 15, 14, 12, 11, 8, 8, 30, 28, 26, 22, 21, 19, 21, 14, 14, 8, 7, 3, 17, 16, 15, 10, 8, 7, 28, 27, 26, 26, 24, 23, 24, 24, 24, 23, 23, 23, 23, 22, 18, 13, 10, 7, 23, 21, 20, 18, 17, 16, 8, 8, 6, 6, 3, 2, 23, 23, 23, 22, 22, 21, 7, 6, 6, 6, 6, 6, 13, 11, 10, 9, 7, 6, 29, 29, 28, 28, 27, 27, 21, 18, 18, 16, 15, 15, 24, 18, 13, 12, 5, 5, 9, 9, 9, 8, 7, 7, 17, 14, 13, 11, 8, 3, 11, 10, 10, 9, 9, 8, 22, 22, 22, 21, 21, 20
 |23, 21, 15, 14, 6, 3, 27, 25, 24, 22, 20, 19, 14, 13, 11, 10, 9, 9, 27, 26, 21, 19, 15, 14, 6, 5, 4, 4, 4, 3, 27, 24, 21, 19, 17, 15, 9, 6, 5, 4, 3, 2, 14, 13, 12, 12, 11, 11, 7, 7, 5, 4, 3, 1, 10, 9, 8, 8, 6, 6, 29, 28, 27, 27, 26, 26, 2, 2, 2, 2, 2, 2, 22, 22, 20, 20, 18, 17, 29, 25, 23, 22, 19, 17, 8, 7, 7, 7, 7, 7, 27, 26, 25, 24, 24, 23, 23, 18, 16, 13, 10, 10, 23, 20, 19, 18, 17, 15, 11, 11, 10, 10, 9, 8, 23, 20, 13, 12, 6, 4, 12, 11, 10, 8, 7, 7, 19, 18, 15, 10, 7, 5, 21, 19, 17, 16, 12, 11, 7, 7, 7, 6, 5, 6, 25, 23, 20, 18, 16, 14, 28, 24, 16, 13, 12, 7, 17, 15, 12, 8, 7, 3, 16, 14, 14, 11, 10, 7, 6, 6, 5, 4, 3, 2, 18, 15, 14, 9, 8, 4, 17, 16, 12, 10, 6, 3, 14, 10, 10, 7, 5, 4, 15, 15, 14, 14, 14, 13, 8, 8, 7, 6, 5, 4, 13, 13, 13, 13, 13, 13, 26, 20, 19, 16, 11, 10, 7, 6, 4, 3, 2, 1, 27, 26, 26, 24, 24, 23, 14, 14, 12, 12, 10, 10, 28, 27, 27, 27, 27, 27, 27, 27, 26, 27, 26, 26, 9, 9, 8, 7, 6, 5, 26, 26, 24, 23, 22, 21, 14, 13, 12, 11, 11, 10, 8, 7, 6, 5, 5, 3, 16, 16, 15, 15, 15, 14, 25, 20, 18, 13, 8, 6, 26, 23, 18, 18, 12, 11, 9, 9, 9, 9, 8, 8, 11, 10, 10, 9, 8, 9|];